133 48 50 156 112 168 79 195 52 92 198 
164 66 147 160 47 91 70 
170 134 153 14 96 130 74 
148 103 197 124 141 69 200 
114 159 38 150 22 151 16 140 187 142 111 63 56 
23 182 75 163 194 145 29 87 42 123 
190 5 10 193 46 128 106 167 34 95 158 
62 131 44 102 146 68 76 
113 175 13 43 2 90 67 17 39 107 
73 116 12 129 11 6 122 139 
30 120 19 192 196 97 15 59 149 
60 82 180 84 191 125 4 72 108 
57 118 83 143 176 36 33 121 165 188 
93 55 135 58 181 117 49 183 
45 178 27 173 154 24 61 100 64 179 109 
21 26 152 40 169 89 105 28 
20 41 85 80 31 25 172 77 110 162 
155 78 184 199 37 81 138 
177 3 88 8 185 132 7 53 
32 171 65 86 115 94 51 174 136 189 
161 104 18 54 186 127 98 157 137 
101 144 119 166 35 126 71 9 1 99 
